30
12
3 8 26 4 15 11 5 27 25 20 9 14 13 12 28 29 10 16 0 6 21 1 19 2 7 23 18
24 28 3 15 11 14 2 4 1
23 15 20 18 0 9 6 13 28 29
23 12 1 2 25 16 3 26 7 9 0 22 21 5 20 29 27 6 28 24
21 0 27 7 23 20 16 25 9 14 18 22 5 12 6 8 10 3 2 4
11 1 20 6 9 3 13 16 23 25 24 21 28 10 18 27 19 14 22 5 0 29 4 12 15 8 7 17 2 26
18 22 3 16 14 1 25 19 5 11 8 27 0 17 10
22 10 17 19 14 23 13 27 26 9 24 2 15 18 21 28 4 29 6 1 25 16 12 0 11 20
19 26 23 2 6 28 22 24 27 21 13 5 17 1 20 7 3 16 29 8 25 10 12 0 18 14 9 15
15 13 25 17 23 26 29 1 8 16 5 21 24 27 28 12 14 10 0 3 11 19 7 22 18 2 6 9 20
15 14 28 26 10 8 16 20
22 19 28 6 25 3 21 2 18 12 1 13 15 10 7 17 26
